12
0 1 2 3 1 1 0 4 2 1 5 2 6 3 4 7 2 1 4 3 3 4 8 4 1 8 9 3 4 7 2 4 6 8 9 9 7 8 7 2 2 3 7 6 2 2 3 3 5 7 5 6 3 7 8 10 8 8 6 10 1 10 10 9 5 5 11 8 11 5 1 9 11 10 3 11 9 0 11 6 10 0 2 5 8 2 7 6 0 0 11 10 1 9 7 5 5 1 10 3 
